G-M-K-G in BZ (hexagonal)
21            ! NKPTS (20 divisions)
Line-mode
rec
 0.0 0.0 0.0  ! Gamma
 0.5 0.0 0.0  ! M

 0.5 0.0 0.0  ! M
 0.3333333333333333 -0.3333333333333333 0.0  ! K

 0.3333333333333333 -0.3333333333333333 0.0  ! K
 0.0 0.0 0.0  ! Gamma
