Gamma-12x12
0
Gamma Monkhorst-Pack
12 12 1
0 0 0
