Gamma-04x04x04
0
Gamma Monkhorst-Pack
04 04 04
0 0 0
