2H-WSe2                                 
   1.00000000000000     
     1.6577441369377646    2.8712970711256309    0.0000000000000000
    -1.6577441369377646    2.8712970711256309    0.0000000000000000
     0.0000000000000000    0.0000000000000000   23.3399999999999999
   W    Se
     1     2
Selective dynamics
Direct
  0.0000000000000000  0.0000000000000000  0.0000000000000000   F   F   F
  0.3333333333333357  0.3333333333333357  0.0718694347990265   T   T   T
  0.3333333333333357  0.3333333333333357  0.9281305652009735   T   T   T
 
  0.00000000E+00  0.00000000E+00  0.00000000E+00
  0.00000000E+00  0.00000000E+00  0.00000000E+00
  0.00000000E+00  0.00000000E+00  0.00000000E+00
