Si diamond structure
   5.43000000000000
     0.0000000000000000    0.4975147639616162    0.4975147639616162
     0.4975147639616162    0.0000000000000000    0.4975147639616162
     0.4975147639616162    0.4975147639616162    0.0000000000000000
   Si
     2
Selective dynamics
Direct
  0.0000000000000000  0.0000000000000000  0.0000000000000000   T   T   T
  0.2500000000000000  0.2500000000000000  0.2500000000000000   T   T   T

  0.00000000E+00  0.00000000E+00  0.00000000E+00
  0.00000000E+00  0.00000000E+00  0.00000000E+00
