Gamma-04x04
0
Gamma Monkhorst-Pack
04 04 1
0 0 0
