1T-WSe2
   1.00000000000000
     1.6419318406600916    2.8439093705883689    0.0000000000000000
    -1.6419318406600916    2.8439093705883689    0.0000000000000000
     0.0000000000000000    0.0000000000000000   23.3399999999999999
   W    Se
     1     2
Selective dynamics
Direct
  0.0000000000000000  0.0000000000000000  0.0000000000000000   F   F   F
  0.3333333333333357  0.3333333333333357  0.0738630292946141   T   T   T
  0.6666666666666643  0.6666666666666643  0.9261369707053859   T   T   T

  0.00000000E+00  0.00000000E+00  0.00000000E+00
  0.00000000E+00  0.00000000E+00  0.00000000E+00
  0.00000000E+00  0.00000000E+00  0.00000000E+00
