Gamma-08x08
0
Gamma Monkhorst-Pack
08 08 08
0 0 0
