Gamma-40x40
0
Gamma Monkhorst-Pack
40 40 1
0 0 0
