Gamma-16x16
0
Gamma Monkhorst-Pack
16 16 1
0 0 0
