Si diamond structure
5.43
0 0.5 0.5
0.5 0 0.5
0.5 0.5 0
Si
2
Selective dynamics
Direct
0 0 0 T T T
0.25 0.25 0.25 T T T
