1T-WSe2
1.00000000000000
1.66000000000000 2.87520434056434 0.00000000000000
-1.66000000000000 2.87520434056434 0.00000000000000
0.00000000000000 0.00000000000000 23.34000000000000
W Se
1 2
Selective dynamics
Cartesian
0.00000000000000 0.00000000000000 0.00000000000000 F F F
0.00000000000000 1.91680289370956 1.67000000000000 T T T
0.00000000000000 -1.91680289370956 -1.67000000000000 T T T
