1T-WSe2
   1.00000000000000
     1.6599999999999999    2.8752043405643399    0.0000000000000000
    -1.6599999999999999    2.8752043405643399    0.0000000000000000
     0.0000000000000000    0.0000000000000000   23.3399999999999999
   W    Se
     1     2
Selective dynamics
Direct
  0.0000000000000000  0.0000000000000000  0.0000000000000000   F   F   F
  0.3333333333333357  0.3333333333333357  0.0715509854327365   T   T   T
  0.6666666666666643  0.6666666666666643  0.9284490145672635   T   T   T

  0.00000000E+00  0.00000000E+00  0.00000000E+00
  0.00000000E+00  0.00000000E+00  0.00000000E+00
  0.00000000E+00  0.00000000E+00  0.00000000E+00
